EA118
 1.0000000000000000
     3.296844    0.000000    0.000000
    -1.164009    3.084473    0.000000
    -1.328210    0.918514    3.398028
 La  H  
   1  10
Direct
  0.403802  0.054365  0.889265
  0.752622  0.700260  0.882078
  0.239173  0.554264  0.522771
  0.239173  0.554264  0.255759
  0.641347  0.329773  0.511749
  0.882349  0.570605  0.270631
  0.882467  0.089109  0.752299
  0.882626  0.571005  0.752608
  0.568431  0.554466  0.522771
  0.568431  0.554466  0.255759
  0.903903  0.889736  0.255759
