EA78
 1.0000000000000000
     1.913601   -3.036004    0.357388
    -0.048025    1.818642   -3.194174
     1.622232    3.197686   -0.320146
 La  H  
   1  10
Direct
  0.522810  0.204687  0.113732
  0.156229  0.591442  0.479484
  0.881368  0.805490  0.269022
  0.251613  0.433133  0.379116
  0.889273  0.324305  0.747341
  0.163328  0.603072  0.958666
  0.793762  0.974680  0.847810
  0.889905  0.818136  0.748572
  0.156888  0.085168  0.480714
  0.366796  0.807086  0.752020
  0.678839  0.602496  0.474481
